0 4281
1 4225
2 4154
3 4088
4 4083
5 4063
13 4055
15 4020
22 4015
105 4010
110 3994
113 3982
120 3980
131 3957
137 3949
175 3916
207 3912
210 3888
212 3878
221 3876
224 3866
225 3851
229 3837
234 3818
238 3814
268 3805
277 3798
298 3790
300 3777
329 3769
335 3764
358 3763
434 3761
438 3758
440 3757
445 3755
566 3751
572 3741
584 3731
637 3721
696 3712
804 3704
901 3690
931 3684
972 3674
1056 3667
1333 3663
1440 3657
1534 3655
1885 3654
1937 3653
2028 3652
2341 3651
2525 3650
2647 3646
2676 3639
3154 3638
3544 3637
3564 3630
